p cnf 7230 15
2984 2985 0
2310 -2985 0
-2310 -2984 0
2982 2983 0
2308 -2983 0
-2308 -2982 0
2980 2981 0
2306 -2981 0
-2306 -2980 0
2978 2979 0
2302 -2979 0
-2302 -2978 0
2976 2977 0
2300 -2977 0
-2300 -2976 0
